Version identifier: 22.1.0.0 | 2022-03-09 | 1a383f8ce
CPXPARAM_Threads                                 1
CPXPARAM_MIP_Strategy_VariableSelect             3
CPXPARAM_TimeLimit                               599.99998066800003
1 of 1 MIP starts provided solutions.
MIP start 'm1' defined initial solution with objective 6.0000.
Tried aggregator 1 time.
MIP Presolve eliminated 18 rows and 0 columns.
MIP Presolve modified 7 coefficients.
Reduced MIP has 3002 rows, 6000 columns, and 90011 nonzeros.
Reduced MIP has 6000 binaries, 0 generals, 0 SOSs, and 0 indicators.
Presolve time = 0.06 sec. (48.86 ticks)
Probing time = 0.00 sec. (4.17 ticks)
Tried aggregator 1 time.
Detecting symmetries...
Reduced MIP has 3002 rows, 6000 columns, and 90011 nonzeros.
Reduced MIP has 6000 binaries, 0 generals, 0 SOSs, and 0 indicators.
Presolve time = 0.06 sec. (45.77 ticks)
Probing time = 0.00 sec. (4.17 ticks)
Clique table members: 895.
MIP emphasis: balance optimality and feasibility.
MIP search method: dynamic search.
Parallel mode: none, using 1 thread.
Root relaxation solution time = 5.52 sec. (5251.55 ticks)

        Nodes                                         Cuts/
   Node  Left     Objective  IInf  Best Integer    Best Bound    ItCnt     Gap

*     0+    0                            6.0000     6000.0000              --- 
      0     0      300.0000  1343        6.0000      300.0000    11843     --- 
*     0+    0                          222.0000      300.0000            35.14%
Detecting symmetries...
      0     2      300.0000   184      222.0000      300.0000    11843   35.14%
Elapsed time = 30.29 sec. (29281.46 ticks, tree = 0.01 MB, solutions = 2)
      1     3      300.0000  1235      222.0000      300.0000    32652   35.14%
      2     4      300.0000   506      222.0000      300.0000    38633   35.14%
      3     5      300.0000   906      222.0000      300.0000    51780   35.14%
      4     6      300.0000   538      222.0000      300.0000    56673   35.14%
      5     7      300.0000   544      222.0000      300.0000    57173   35.14%
      6     8      300.0000   690      222.0000      300.0000    62587   35.14%
      7     9      300.0000   892      222.0000      300.0000    80573   35.14%
      8    10      300.0000   545      222.0000      300.0000    81096   35.14%
      9    11      300.0000  1160      222.0000      300.0000    84266   35.14%
     11    13      300.0000   536      222.0000      300.0000    87914   35.14%
Elapsed time = 64.99 sec. (63556.99 ticks, tree = 0.03 MB, solutions = 2)
     12    14      300.0000   722      222.0000      300.0000    90893   35.14%
     15    17      300.0000   525      222.0000      300.0000    97325   35.14%
     18    20      300.0000   506      222.0000      300.0000   101502   35.14%
     21    23      300.0000   494      222.0000      300.0000   109836   35.14%
     24    26      300.0000   471      222.0000      300.0000   112191   35.14%
     26    28      300.0000   461      222.0000      300.0000   115164   35.14%
     29    31      300.0000   432      222.0000      300.0000   121705   35.14%
     31    33      300.0000   829      222.0000      300.0000   127881   35.14%
     33    35      300.0000   441      222.0000      300.0000   133914   35.14%
     35    37      300.0000   514      222.0000      300.0000   139929   35.14%
Elapsed time = 78.99 sec. (77544.70 ticks, tree = 0.08 MB, solutions = 2)
     38    40      300.0000   424      222.0000      300.0000   143385   35.14%
     40    42      300.0000   428      222.0000      300.0000   149936   35.14%
     44    46      300.0000   423      222.0000      300.0000   151356   35.14%
     46    48      300.0000   380      222.0000      300.0000   159291   35.14%
     48    50      300.0000   430      222.0000      300.0000   171211   35.14%
     51    53      300.0000   375      222.0000      300.0000   174475   35.14%
     52    54      300.0000   522      222.0000      300.0000   179995   35.14%
     55    57      300.0000   497      222.0000      300.0000   190234   35.14%
     57    59      300.0000  1054      222.0000      300.0000   201815   35.14%
     60    62      300.0000   316      222.0000      300.0000   206645   35.14%
Elapsed time = 116.57 sec. (110489.05 ticks, tree = 0.15 MB, solutions = 2)
     62    64      300.0000  1079      222.0000      300.0000   218266   35.14%
     65    67      300.0000   283      222.0000      300.0000   219505   35.14%
     69    71      300.0000   269      222.0000      300.0000   221128   35.14%
     72    74      300.0000   254      222.0000      300.0000   225738   35.14%
     73    75      300.0000   376      222.0000      300.0000   233867   35.14%
     77    79      300.0000   219      222.0000      300.0000   234504   35.14%
     78    80      300.0000   304      222.0000      300.0000   239569   35.14%
     82    84      300.0000   190      222.0000      300.0000   239969   35.14%
     85    87      300.0000   211      222.0000      300.0000   243316   35.14%
     89    91      300.0000   198      222.0000      300.0000   244715   35.14%
Elapsed time = 131.53 sec. (124702.82 ticks, tree = 0.80 MB, solutions = 2)
     92    94      300.0000   192      222.0000      300.0000   247087   35.14%
     96    98      300.0000   183      222.0000      300.0000   248199   35.14%
    100   102      300.0000   180      222.0000      300.0000   249011   35.14%
    104   106      300.0000   222      222.0000      300.0000   254508   35.14%
    107   109      300.0000   365      222.0000      300.0000   262799   35.14%
    110   112      300.0000   308      222.0000      300.0000   266553   35.14%
    112   114      300.0000   383      222.0000      300.0000   274279   35.14%
    115   117      300.0000   123      222.0000      300.0000   277156   35.14%
    116   118      300.0000   215      222.0000      300.0000   279953   35.14%
    117   119      300.0000   363      222.0000      300.0000   290838   35.14%
Elapsed time = 147.97 sec. (140774.78 ticks, tree = 1.54 MB, solutions = 2)
    118   120      300.0000   251      222.0000      300.0000   295919   35.14%
    119   121      300.0000   899      222.0000      300.0000   301946   35.14%
    121   123      300.0000   700      222.0000      300.0000   309938   35.14%
    124   126      300.0000   258      222.0000      300.0000   313776   35.14%
    125   127      300.0000   596      222.0000      300.0000   326970   35.14%
    129   131      300.0000   408      222.0000      300.0000   337328   35.14%
    131   133      300.0000   344      222.0000      300.0000   346337   35.14%
    134   136      300.0000   315      222.0000      300.0000   351466   35.14%
    136   138      300.0000   419      222.0000      300.0000   366111   35.14%
    139   141      300.0000   251      222.0000      300.0000   366930   35.14%
Elapsed time = 164.75 sec. (156193.34 ticks, tree = 2.11 MB, solutions = 2)
    140   142      300.0000   253      222.0000      300.0000   367267   35.14%
    141   143      300.0000   476      222.0000      300.0000   371824   35.14%
    143   145      300.0000   380      222.0000      300.0000   386207   35.14%
    145   147      300.0000   292      222.0000      300.0000   390742   35.14%
    148   150      300.0000   238      222.0000      300.0000   391814   35.14%
    151   153      300.0000   264      222.0000      300.0000   393659   35.14%
    153   155      300.0000   333      222.0000      300.0000   397171   35.14%
    155   157      300.0000   335      222.0000      300.0000   400884   35.14%
    157   159      300.0000   251      222.0000      300.0000   404623   35.14%
    159   161      300.0000   429      222.0000      300.0000   415921   35.14%
Elapsed time = 184.51 sec. (174526.27 ticks, tree = 2.60 MB, solutions = 2)
    161   163      300.0000   256      222.0000      300.0000   418198   35.14%
    164   166      300.0000   235      222.0000      300.0000   419522   35.14%
    167   169      300.0000   265      222.0000      300.0000   423121   35.14%
    170   172      300.0000   273      222.0000      300.0000   426442   35.14%
    173   175      300.0000   884      222.0000      300.0000   433899   35.14%
    176   178      300.0000   226      222.0000      300.0000   436174   35.14%
    177   179      300.0000   257      222.0000      300.0000   439185   35.14%
    179   181      300.0000   240      222.0000      300.0000   440377   35.14%
    180   182      300.0000   232      222.0000      300.0000   443924   35.14%
    182   184      300.0000   430      222.0000      300.0000   458561   35.14%
Elapsed time = 204.85 sec. (193316.64 ticks, tree = 3.21 MB, solutions = 2)
    183   185      300.0000   394      222.0000      300.0000   464454   35.14%
    185   187      300.0000   384      222.0000      300.0000   465590   35.14%
    187   189      300.0000   354      222.0000      300.0000   468144   35.14%
    189   191      300.0000   328      222.0000      300.0000   471794   35.14%
    192   194      300.0000   327      222.0000      300.0000   473822   35.14%
    194   196      300.0000   309      222.0000      300.0000   477533   35.14%
    198   200      300.0000   271      222.0000      300.0000   484197   35.14%
    200   202      300.0000   307      222.0000      300.0000   489117   35.14%
    204   206      300.0000   239      222.0000      300.0000   493105   35.14%
    207   209      300.0000   345      222.0000      300.0000   507305   35.14%
Elapsed time = 221.94 sec. (208771.45 ticks, tree = 3.81 MB, solutions = 2)
    209   211      300.0000   732      222.0000      300.0000   512132   35.14%
    211   213      300.0000   293      222.0000      300.0000   516833   35.14%
    215   217      300.0000   226      222.0000      300.0000   523500   35.14%
    218   220      300.0000   172      222.0000      300.0000   527673   35.14%
    221   223      300.0000   162      222.0000      300.0000   529086   35.14%
    225   227      300.0000   184      222.0000      300.0000   531256   35.14%
    228   230      300.0000   143      222.0000      300.0000   535891   35.14%
    231   233      300.0000    74      222.0000      300.0000   539959   35.14%
    233   235      300.0000    87      222.0000      300.0000   545334   35.14%
    237   239      300.0000   401      222.0000      300.0000   558904   35.14%
Elapsed time = 239.64 sec. (225126.56 ticks, tree = 4.60 MB, solutions = 2)
    245   247      300.0000   129      222.0000      300.0000   567847   35.14%
    251   253      300.0000   367      222.0000      300.0000   576460   35.14%
    258   260      300.0000   458      222.0000      300.0000   586627   35.14%
    263   265      300.0000   376      222.0000      300.0000   596877   35.14%
    270   272      300.0000   349      222.0000      300.0000   605228   35.14%
    277   279      300.0000   349      222.0000      300.0000   613956   35.14%
    284   286      300.0000   317      222.0000      300.0000   623025   35.14%
    289   291      300.0000   453      222.0000      300.0000   635345   35.14%
    296   298      300.0000   312      222.0000      300.0000   644278   35.14%
    300   302      300.0000   425      222.0000      300.0000   655349   35.14%
Elapsed time = 291.27 sec. (271208.17 ticks, tree = 6.23 MB, solutions = 2)
    306   308      300.0000   444      222.0000      300.0000   666072   35.14%
    312   314      300.0000   390      222.0000      300.0000   676610   35.14%
    318   320      300.0000   422      222.0000      300.0000   688096   35.14%
    325   327      299.8571   424      222.0000      300.0000   697371   35.14%
    334   336      299.8077   382      222.0000      300.0000   707073   35.14%
    347   349      299.8333   397      222.0000      300.0000   715357   35.14%
    356   358      299.8333   371      222.0000      300.0000   725676   35.14%
    364   365      299.6154   365      222.0000      300.0000   735611   35.14%
    376   377      299.4737   357      222.0000      300.0000   745540   35.14%
    390   391      299.6000   294      222.0000      300.0000   751512   35.14%
Elapsed time = 337.43 sec. (312050.72 ticks, tree = 8.51 MB, solutions = 2)
    400   401      299.6000   305      222.0000      300.0000   761049   35.14%
    414   413      299.3846   265      222.0000      300.0000   770830   35.14%
    428   422      298.0000   156      222.0000      300.0000   782881   35.14%
    445   437      298.0000    83      222.0000      300.0000   790826   35.14%
    468   454    infeasible            222.0000      300.0000   799760   35.14%
    489   465      300.0000   376      222.0000      300.0000   814681   35.14%
    496   472      300.0000   409      222.0000      300.0000   828591   35.14%
    502   478      300.0000   456      222.0000      300.0000   840673   35.14%
    507   483      300.0000   464      222.0000      300.0000   853618   35.14%
    513   489      300.0000   389      222.0000      300.0000   864518   35.14%
Elapsed time = 388.02 sec. (356285.57 ticks, tree = 11.00 MB, solutions = 2)
    519   494      300.0000   441      222.0000      300.0000   875011   35.14%
    524   499      300.0000   262      222.0000      300.0000   882522   35.14%
    528   503      300.0000   368      222.0000      300.0000   894702   35.14%
    534   509      300.0000   391      222.0000      300.0000   906686   35.14%
    539   514      300.0000   219      222.0000      300.0000   917254   35.14%
    544   518      300.0000   367      222.0000      300.0000   928378   35.14%
    551   525      300.0000   217      222.0000      300.0000   939430   35.14%
    557   531      300.0000   240      222.0000      300.0000   950730   35.14%
    564   538      300.0000   161      222.0000      300.0000   959836   35.14%
    573   547      300.0000   195      222.0000      300.0000   969296   35.14%
Elapsed time = 434.59 sec. (397644.43 ticks, tree = 12.51 MB, solutions = 2)
    586   560      300.0000   111      222.0000      300.0000   975906   35.14%
    597   571      299.4086   155      222.0000      300.0000   986475   35.14%
    609   582      300.0000    86      222.0000      300.0000   997228   35.14%
    620   593      300.0000    82      222.0000      300.0000  1008313   35.14%
    633   606      300.0000   114      222.0000      300.0000  1017327   35.14%
*   637     0      integral     0      300.0000      300.0000  1020942    0.00%

Root node processing (before b&c):
  Real time             =   30.25 sec. (29247.09 ticks)
Sequential b&c:
  Real time             =  428.84 sec. (389467.29 ticks)
                          ------------
Total (root+branch&cut) =  459.09 sec. (418714.38 ticks)
Primal:	300
Dual:	300
Status:	Optimal
Time:	459.11
Sequence:
	17
	14
	0
	14
	19
	2
	5
	8
	1
	7
	0
	6
	2
	3
	6
	0
	14
	17
	7
	6
	0
	1
	2
	9
	4
	10
	1
	0
	4
	7
	12
	1
	0
	7
	18
	1
	15
	2
	18
	11
	6
	12
	16
	11
	18
	6
	12
	17
	7
	4
	14
	17
	10
	4
	9
	3
	15
	10
	4
	19
	13
	12
	8
	3
	6
	7
	12
	11
	0
	6
	7
	1
	0
	8
	13
	1
	18
	15
	18
	3
	15
	13
	12
	19
	13
	12
	4
	1
	18
	2
	15
	3
	5
	9
	16
	19
	12
	14
	4
	17
	7
	12
	6
	11
	0
	13
	15
	11
	6
	2
	9
	1
	0
	7
	8
	1
	5
	0
	7
	17
	14
	5
	16
	19
	16
	5
	14
	19
	16
	8
	14
	19
	14
	8
	0
	1
	18
	14
	8
	3
	12
	7
	6
	16
	19
	10
	9
	14
	19
	16
	12
	18
	11
	6
	16
	15
	3
	9
	5
	2
	1
	8
	18
	14
	19
	12
	2
	18
	1
	4
	10
	0
	19
	14
	13
	12
	19
	2
	6
	13
	17
	14
	9
	10
	19
	8
	14
	4
	11
	15
	16
	6
	3
	9
	10
	8
	19
	14
	9
	15
	3
	2
	5
	18
	17
	6
	0
	14
	11
	8
	5
	2
	6
	11
	8
	5
	2
	1
	18
	8
	14
	3
	15
	18
	16
	1
	18
	12
	7
	3
	12
	4
	10
	19
	13
	12
	7
	17
	6
	18
	15
	11
	16
	6
	9
	3
	15
	16
	6
	3
	18
	10
	4
	17
	14
	9
	10
	19
	2
	6
	7
	17
	5
	2
	4
	11
	15
	6
	2
	11
	4
	12
	7
	17
	6
	7
	12
	3
	18
	12
	7
	12
	3
	18
	15
	13
	1
	0
	18
	8
	1
	13
	18
	15
	13
	11
	6
	8
	10
	3
